p cnf 361 1
361 0
w 1 0.639265
w 2 1 0
w 2 -1 1
w 3 2 0.397499
w 3 -2 0.596725
w 4 3 1
w 4 -3 0
w 5 4 0.313301
w 5 -4 0.374396
w 6 5 0.864814
w 6 -5 0.595309
w 7 6 0.771699
w 7 -6 0.447062
w 8 7 0.836788
w 8 -7 0.881047
w 9 8 0.363444
w 9 -8 0.879242
w 10 9 0.829766
w 10 -9 0.440349
w 11 10 0.394136
w 11 -10 0.373746
w 12 11 1
w 12 -11 0
w 13 12 0
w 13 -12 1
w 14 13 0.656762
w 14 -13 0.988373
w 15 14 1
w 15 -14 0
w 16 15 1
w 16 -15 0
w 17 16 0
w 17 -16 1
w 18 17 0.224439
w 18 -17 0.407485
w 19 18 0.996138
w 19 -18 0.854547
w 20 1 0
w 20 -1 1
w 21 20 2 0.975609
w 21 20 -2 0.19637
w 21 -20 2 0.614836
w 21 -20 -2 0.906095
w 22 21 3 1
w 22 21 -3 1
w 22 -21 3 0
w 22 -21 -3 1
w 23 22 4 1
w 23 22 -4 0
w 23 -22 4 1
w 23 -22 -4 1
w 24 23 5 0
w 24 23 -5 0
w 24 -23 5 1
w 24 -23 -5 0
w 25 24 6 0.880398
w 25 24 -6 0.57721
w 25 -24 6 0.729091
w 25 -24 -6 0.287883
w 26 25 7 0
w 26 25 -7 0
w 26 -25 7 1
w 26 -25 -7 0
w 27 26 8 0.799737
w 27 26 -8 0.754525
w 27 -26 8 0.492862
w 27 -26 -8 0.705831
w 28 27 9 0.548047
w 28 27 -9 0.586548
w 28 -27 9 0.200933
w 28 -27 -9 0.976978
w 29 28 10 0.00693479
w 29 28 -10 0.418919
w 29 -28 10 0.279811
w 29 -28 -10 0.707574
w 30 29 11 0.910251
w 30 29 -11 0.899576
w 30 -29 11 0.662649
w 30 -29 -11 0.978472
w 31 30 12 0.167302
w 31 30 -12 0.85887
w 31 -30 12 0.0777847
w 31 -30 -12 0.896393
w 32 31 13 1
w 32 31 -13 0
w 32 -31 13 1
w 32 -31 -13 1
w 33 32 14 0
w 33 32 -14 1
w 33 -32 14 1
w 33 -32 -14 0
w 34 33 15 0.714964
w 34 33 -15 0.208118
w 34 -33 15 0.405336
w 34 -33 -15 0.915897
w 35 34 16 1
w 35 34 -16 0
w 35 -34 16 0
w 35 -34 -16 1
w 36 35 17 0.121637
w 36 35 -17 0.23314
w 36 -35 17 0.529982
w 36 -35 -17 0.784286
w 37 36 18 1
w 37 36 -18 0
w 37 -36 18 1
w 37 -36 -18 1
w 38 37 19 1
w 38 37 -19 1
w 38 -37 19 1
w 38 -37 -19 0
w 39 20 0.673629
w 39 -20 0.0236097
w 40 39 21 0.333699
w 40 39 -21 0.842398
w 40 -39 21 0.298649
w 40 -39 -21 0.541817
w 41 40 22 1
w 41 40 -22 1
w 41 -40 22 0
w 41 -40 -22 1
w 42 41 23 0.767783
w 42 41 -23 0.452564
w 42 -41 23 0.84684
w 42 -41 -23 0.297765
w 43 42 24 1
w 43 42 -24 0
w 43 -42 24 0
w 43 -42 -24 1
w 44 43 25 1
w 44 43 -25 1
w 44 -43 25 1
w 44 -43 -25 0
w 45 44 26 0.94475
w 45 44 -26 0.155408
w 45 -44 26 0.526218
w 45 -44 -26 0.96836
w 46 45 27 0.859917
w 46 45 -27 0.810757
w 46 -45 27 0.037743
w 46 -45 -27 0.401734
w 47 46 28 1
w 47 46 -28 0
w 47 -46 28 1
w 47 -46 -28 0
w 48 47 29 0
w 48 47 -29 1
w 48 -47 29 0
w 48 -47 -29 0
w 49 48 30 0
w 49 48 -30 1
w 49 -48 30 1
w 49 -48 -30 0
w 50 49 31 0.220199
w 50 49 -31 0.373849
w 50 -49 31 0.343397
w 50 -49 -31 0.254296
w 51 50 32 0.195987
w 51 50 -32 0.199045
w 51 -50 32 0.0352822
w 51 -50 -32 0.722205
w 52 51 33 1
w 52 51 -33 1
w 52 -51 33 0
w 52 -51 -33 0
w 53 52 34 0.0366522
w 53 52 -34 0.0644077
w 53 -52 34 0.112503
w 53 -52 -34 0.385954
w 54 53 35 1
w 54 53 -35 0
w 54 -53 35 1
w 54 -53 -35 0
w 55 54 36 0
w 55 54 -36 0
w 55 -54 36 1
w 55 -54 -36 0
w 56 55 37 1
w 56 55 -37 0
w 56 -55 37 0
w 56 -55 -37 0
w 57 56 38 1
w 57 56 -38 1
w 57 -56 38 1
w 57 -56 -38 0
w 58 39 0.0340113
w 58 -39 0.868026
w 59 58 40 0.84613
w 59 58 -40 0.851882
w 59 -58 40 0.706034
w 59 -58 -40 0.910538
w 60 59 41 0.0919875
w 60 59 -41 0.364612
w 60 -59 41 0.536461
w 60 -59 -41 0.440942
w 61 60 42 0.0206749
w 61 60 -42 0.599738
w 61 -60 42 0.0428743
w 61 -60 -42 0.653878
w 62 61 43 0.893149
w 62 61 -43 0.624508
w 62 -61 43 0.651142
w 62 -61 -43 0.963623
w 63 62 44 0.018854
w 63 62 -44 0.288392
w 63 -62 44 0.193341
w 63 -62 -44 0.582553
w 64 63 45 0.452976
w 64 63 -45 0.868457
w 64 -63 45 0.503426
w 64 -63 -45 0.486988
w 65 64 46 0.172808
w 65 64 -46 0.333118
w 65 -64 46 0.588365
w 65 -64 -46 0.878842
w 66 65 47 1
w 66 65 -47 1
w 66 -65 47 0
w 66 -65 -47 1
w 67 66 48 0
w 67 66 -48 0
w 67 -66 48 1
w 67 -66 -48 0
w 68 67 49 0.638336
w 68 67 -49 0.520426
w 68 -67 49 0.38827
w 68 -67 -49 0.289478
w 69 68 50 0
w 69 68 -50 0
w 69 -68 50 1
w 69 -68 -50 0
w 70 69 51 0.584648
w 70 69 -51 0.00357464
w 70 -69 51 0.759342
w 70 -69 -51 0.088074
w 71 70 52 1
w 71 70 -52 1
w 71 -70 52 0
w 71 -70 -52 0
w 72 71 53 1
w 72 71 -53 0
w 72 -71 53 1
w 72 -71 -53 1
w 73 72 54 0.522325
w 73 72 -54 0.260006
w 73 -72 54 0.836033
w 73 -72 -54 0.533835
w 74 73 55 0.599795
w 74 73 -55 0.172171
w 74 -73 55 0.407709
w 74 -73 -55 0.988066
w 75 74 56 0
w 75 74 -56 0
w 75 -74 56 1
w 75 -74 -56 1
w 76 75 57 0.660866
w 76 75 -57 0.248847
w 76 -75 57 0.899496
w 76 -75 -57 0.420207
w 77 58 0
w 77 -58 1
w 78 77 59 0.597803
w 78 77 -59 0.213739
w 78 -77 59 0.000220467
w 78 -77 -59 0.737527
w 79 78 60 1
w 79 78 -60 0
w 79 -78 60 1
w 79 -78 -60 0
w 80 79 61 0
w 80 79 -61 1
w 80 -79 61 1
w 80 -79 -61 0
w 81 80 62 0.076413
w 81 80 -62 0.511674
w 81 -80 62 0.787201
w 81 -80 -62 0.538062
w 82 81 63 0
w 82 81 -63 1
w 82 -81 63 0
w 82 -81 -63 0
w 83 82 64 1
w 83 82 -64 1
w 83 -82 64 0
w 83 -82 -64 1
w 84 83 65 0
w 84 83 -65 1
w 84 -83 65 0
w 84 -83 -65 1
w 85 84 66 0.942527
w 85 84 -66 0.836811
w 85 -84 66 0.769489
w 85 -84 -66 0.305833
w 86 85 67 0
w 86 85 -67 1
w 86 -85 67 0
w 86 -85 -67 1
w 87 86 68 1
w 87 86 -68 0
w 87 -86 68 0
w 87 -86 -68 1
w 88 87 69 1
w 88 87 -69 1
w 88 -87 69 0
w 88 -87 -69 1
w 89 88 70 0
w 89 88 -70 1
w 89 -88 70 0
w 89 -88 -70 1
w 90 89 71 1
w 90 89 -71 1
w 90 -89 71 0
w 90 -89 -71 0
w 91 90 72 1
w 91 90 -72 1
w 91 -90 72 1
w 91 -90 -72 0
w 92 91 73 1
w 92 91 -73 0
w 92 -91 73 0
w 92 -91 -73 0
w 93 92 74 1
w 93 92 -74 1
w 93 -92 74 0
w 93 -92 -74 0
w 94 93 75 1
w 94 93 -75 0
w 94 -93 75 1
w 94 -93 -75 1
w 95 94 76 0
w 95 94 -76 0
w 95 -94 76 1
w 95 -94 -76 1
w 96 77 0
w 96 -77 1
w 97 96 78 0
w 97 96 -78 0
w 97 -96 78 0
w 97 -96 -78 1
w 98 97 79 1
w 98 97 -79 0
w 98 -97 79 1
w 98 -97 -79 1
w 99 98 80 1
w 99 98 -80 1
w 99 -98 80 0
w 99 -98 -80 1
w 100 99 81 0.370802
w 100 99 -81 0.644716
w 100 -99 81 0.239878
w 100 -99 -81 0.666626
w 101 100 82 0
w 101 100 -82 0
w 101 -100 82 0
w 101 -100 -82 1
w 102 101 83 0.457797
w 102 101 -83 0.79553
w 102 -101 83 0.59419
w 102 -101 -83 0.765018
w 103 102 84 0
w 103 102 -84 1
w 103 -102 84 1
w 103 -102 -84 1
w 104 103 85 0
w 104 103 -85 1
w 104 -103 85 0
w 104 -103 -85 1
w 105 104 86 1
w 105 104 -86 0
w 105 -104 86 1
w 105 -104 -86 0
w 106 105 87 0.918047
w 106 105 -87 0.42609
w 106 -105 87 0.776659
w 106 -105 -87 0.584674
w 107 106 88 1
w 107 106 -88 1
w 107 -106 88 1
w 107 -106 -88 0
w 108 107 89 1
w 108 107 -89 1
w 108 -107 89 0
w 108 -107 -89 1
w 109 108 90 1
w 109 108 -90 0
w 109 -108 90 1
w 109 -108 -90 0
w 110 109 91 0.419879
w 110 109 -91 0.326309
w 110 -109 91 0.779245
w 110 -109 -91 0.275918
w 111 110 92 0.246269
w 111 110 -92 0.564445
w 111 -110 92 0.362233
w 111 -110 -92 0.793514
w 112 111 93 1
w 112 111 -93 1
w 112 -111 93 1
w 112 -111 -93 0
w 113 112 94 0
w 113 112 -94 1
w 113 -112 94 0
w 113 -112 -94 1
w 114 113 95 1
w 114 113 -95 0
w 114 -113 95 0
w 114 -113 -95 0
w 115 96 0
w 115 -96 1
w 116 115 97 0.434572
w 116 115 -97 0.796658
w 116 -115 97 0.310927
w 116 -115 -97 0.854451
w 117 116 98 1
w 117 116 -98 0
w 117 -116 98 0
w 117 -116 -98 0
w 118 117 99 0.198547
w 118 117 -99 0.129956
w 118 -117 99 0.0406337
w 118 -117 -99 0.0975625
w 119 118 100 0.812543
w 119 118 -100 0.773237
w 119 -118 100 0.137753
w 119 -118 -100 0.0311598
w 120 119 101 0.0539889
w 120 119 -101 0.345479
w 120 -119 101 0.346757
w 120 -119 -101 0.383605
w 121 120 102 0
w 121 120 -102 0
w 121 -120 102 1
w 121 -120 -102 1
w 122 121 103 0.00688906
w 122 121 -103 0.683681
w 122 -121 103 0.551168
w 122 -121 -103 0.317816
w 123 122 104 0.674134
w 123 122 -104 0.407989
w 123 -122 104 0.668501
w 123 -122 -104 0.510448
w 124 123 105 0.363315
w 124 123 -105 0.708995
w 124 -123 105 0.874386
w 124 -123 -105 0.403949
w 125 124 106 0.715904
w 125 124 -106 0.216492
w 125 -124 106 0.579795
w 125 -124 -106 0.853658
w 126 125 107 0
w 126 125 -107 0
w 126 -125 107 1
w 126 -125 -107 0
w 127 126 108 0
w 127 126 -108 0
w 127 -126 108 0
w 127 -126 -108 1
w 128 127 109 1
w 128 127 -109 0
w 128 -127 109 0
w 128 -127 -109 0
w 129 128 110 0.303695
w 129 128 -110 0.991857
w 129 -128 110 0.938757
w 129 -128 -110 0.972196
w 130 129 111 0.683188
w 130 129 -111 0.33551
w 130 -129 111 0.2113
w 130 -129 -111 0.557574
w 131 130 112 0.0178578
w 131 130 -112 0.273479
w 131 -130 112 0.955951
w 131 -130 -112 0.597652
w 132 131 113 0
w 132 131 -113 0
w 132 -131 113 1
w 132 -131 -113 1
w 133 132 114 0.326035
w 133 132 -114 0.603162
w 133 -132 114 0.639587
w 133 -132 -114 0.338081
w 134 115 0.72147
w 134 -115 0.104635
w 135 134 116 1
w 135 134 -116 1
w 135 -134 116 0
w 135 -134 -116 1
w 136 135 117 0
w 136 135 -117 0
w 136 -135 117 1
w 136 -135 -117 1
w 137 136 118 0
w 137 136 -118 0
w 137 -136 118 1
w 137 -136 -118 1
w 138 137 119 1
w 138 137 -119 0
w 138 -137 119 1
w 138 -137 -119 1
w 139 138 120 0.167865
w 139 138 -120 0.79418
w 139 -138 120 0.578997
w 139 -138 -120 0.4939
w 140 139 121 0
w 140 139 -121 0
w 140 -139 121 1
w 140 -139 -121 0
w 141 140 122 0.228747
w 141 140 -122 0.427087
w 141 -140 122 0.358974
w 141 -140 -122 0.781694
w 142 141 123 1
w 142 141 -123 1
w 142 -141 123 1
w 142 -141 -123 0
w 143 142 124 1
w 143 142 -124 1
w 143 -142 124 0
w 143 -142 -124 0
w 144 143 125 0.186704
w 144 143 -125 0.710911
w 144 -143 125 0.706533
w 144 -143 -125 0.319786
w 145 144 126 0.478717
w 145 144 -126 0.48765
w 145 -144 126 0.502538
w 145 -144 -126 0.057714
w 146 145 127 0.899881
w 146 145 -127 0.276298
w 146 -145 127 0.813531
w 146 -145 -127 0.106449
w 147 146 128 0
w 147 146 -128 1
w 147 -146 128 0
w 147 -146 -128 0
w 148 147 129 0.88231
w 148 147 -129 0.39029
w 148 -147 129 0.841994
w 148 -147 -129 0.572018
w 149 148 130 0.921168
w 149 148 -130 0.389545
w 149 -148 130 0.0193401
w 149 -148 -130 0.838234
w 150 149 131 0
w 150 149 -131 1
w 150 -149 131 0
w 150 -149 -131 1
w 151 150 132 1
w 151 150 -132 0
w 151 -150 132 0
w 151 -150 -132 1
w 152 151 133 0.659921
w 152 151 -133 0.872011
w 152 -151 133 0.808562
w 152 -151 -133 0.76637
w 153 134 0
w 153 -134 1
w 154 153 135 1
w 154 153 -135 0
w 154 -153 135 0
w 154 -153 -135 0
w 155 154 136 0.608747
w 155 154 -136 0.435053
w 155 -154 136 0.12216
w 155 -154 -136 0.447329
w 156 155 137 1
w 156 155 -137 0
w 156 -155 137 0
w 156 -155 -137 0
w 157 156 138 0.743601
w 157 156 -138 0.923737
w 157 -156 138 0.198543
w 157 -156 -138 0.0011036
w 158 157 139 1
w 158 157 -139 0
w 158 -157 139 0
w 158 -157 -139 0
w 159 158 140 0.015615
w 159 158 -140 0.187436
w 159 -158 140 0.0178245
w 159 -158 -140 0.574325
w 160 159 141 0
w 160 159 -141 0
w 160 -159 141 1
w 160 -159 -141 1
w 161 160 142 0.116208
w 161 160 -142 0.77774
w 161 -160 142 0.914458
w 161 -160 -142 0.563537
w 162 161 143 1
w 162 161 -143 1
w 162 -161 143 0
w 162 -161 -143 1
w 163 162 144 0
w 163 162 -144 1
w 163 -162 144 1
w 163 -162 -144 1
w 164 163 145 1
w 164 163 -145 0
w 164 -163 145 1
w 164 -163 -145 0
w 165 164 146 0.336153
w 165 164 -146 0.442768
w 165 -164 146 0.680825
w 165 -164 -146 0.910477
w 166 165 147 0.430453
w 166 165 -147 0.152633
w 166 -165 147 0.239231
w 166 -165 -147 0.773141
w 167 166 148 0.355438
w 167 166 -148 0.550881
w 167 -166 148 0.859388
w 167 -166 -148 0.918975
w 168 167 149 0.285551
w 168 167 -149 0.949182
w 168 -167 149 0.0132595
w 168 -167 -149 0.576169
w 169 168 150 0.0852774
w 169 168 -150 0.790524
w 169 -168 150 0.553563
w 169 -168 -150 0.158399
w 170 169 151 0
w 170 169 -151 1
w 170 -169 151 0
w 170 -169 -151 1
w 171 170 152 0
w 171 170 -152 0
w 171 -170 152 0
w 171 -170 -152 1
w 172 153 1
w 172 -153 0
w 173 172 154 0
w 173 172 -154 1
w 173 -172 154 0
w 173 -172 -154 1
w 174 173 155 0
w 174 173 -155 0
w 174 -173 155 0
w 174 -173 -155 1
w 175 174 156 0.0528866
w 175 174 -156 0.537461
w 175 -174 156 0.0818349
w 175 -174 -156 0.84341
w 176 175 157 1
w 176 175 -157 0
w 176 -175 157 1
w 176 -175 -157 0
w 177 176 158 0.745657
w 177 176 -158 0.480894
w 177 -176 158 0.373335
w 177 -176 -158 0.0693945
w 178 177 159 1
w 178 177 -159 0
w 178 -177 159 0
w 178 -177 -159 1
w 179 178 160 0.255956
w 179 178 -160 0.639324
w 179 -178 160 0.022236
w 179 -178 -160 0.273159
w 180 179 161 0.213403
w 180 179 -161 0.209338
w 180 -179 161 0.921078
w 180 -179 -161 0.69012
w 181 180 162 1
w 181 180 -162 1
w 181 -180 162 0
w 181 -180 -162 1
w 182 181 163 0.723183
w 182 181 -163 0.239704
w 182 -181 163 0.896442
w 182 -181 -163 0.481254
w 183 182 164 0
w 183 182 -164 0
w 183 -182 164 1
w 183 -182 -164 1
w 184 183 165 0
w 184 183 -165 1
w 184 -183 165 1
w 184 -183 -165 0
w 185 184 166 0.290372
w 185 184 -166 0.975303
w 185 -184 166 0.228345
w 185 -184 -166 0.312608
w 186 185 167 1
w 186 185 -167 0
w 186 -185 167 0
w 186 -185 -167 0
w 187 186 168 0.00483725
w 187 186 -168 0.959138
w 187 -186 168 0.184657
w 187 -186 -168 0.00430752
w 188 187 169 0.907839
w 188 187 -169 0.244011
w 188 -187 169 0.441997
w 188 -187 -169 0.389094
w 189 188 170 0.848619
w 189 188 -170 0.616004
w 189 -188 170 0.67011
w 189 -188 -170 0.628574
w 190 189 171 0.795265
w 190 189 -171 0.325845
w 190 -189 171 0.512225
w 190 -189 -171 0.514611
w 191 172 0.802597
w 191 -172 0.489913
w 192 191 173 0
w 192 191 -173 1
w 192 -191 173 0
w 192 -191 -173 0
w 193 192 174 0
w 193 192 -174 1
w 193 -192 174 0
w 193 -192 -174 0
w 194 193 175 0.93333
w 194 193 -175 0.405681
w 194 -193 175 0.362042
w 194 -193 -175 0.841169
w 195 194 176 0.804039
w 195 194 -176 0.230263
w 195 -194 176 0.366307
w 195 -194 -176 0.652658
w 196 195 177 0.0364168
w 196 195 -177 0.281232
w 196 -195 177 0.758577
w 196 -195 -177 0.831681
w 197 196 178 0.270801
w 197 196 -178 0.346292
w 197 -196 178 0.521944
w 197 -196 -178 0.0733983
w 198 197 179 0.665154
w 198 197 -179 0.188604
w 198 -197 179 0.574581
w 198 -197 -179 0.974489
w 199 198 180 0.770756
w 199 198 -180 0.371025
w 199 -198 180 0.687168
w 199 -198 -180 0.519429
w 200 199 181 0.503654
w 200 199 -181 0.452759
w 200 -199 181 0.17808
w 200 -199 -181 0.865696
w 201 200 182 0
w 201 200 -182 0
w 201 -200 182 0
w 201 -200 -182 1
w 202 201 183 0
w 202 201 -183 0
w 202 -201 183 1
w 202 -201 -183 0
w 203 202 184 0
w 203 202 -184 1
w 203 -202 184 0
w 203 -202 -184 1
w 204 203 185 0
w 204 203 -185 1
w 204 -203 185 0
w 204 -203 -185 0
w 205 204 186 1
w 205 204 -186 0
w 205 -204 186 1
w 205 -204 -186 1
w 206 205 187 0.5622
w 206 205 -187 0.693794
w 206 -205 187 0.548175
w 206 -205 -187 0.856128
w 207 206 188 0.21791
w 207 206 -188 0.380318
w 207 -206 188 0.715646
w 207 -206 -188 0.540303
w 208 207 189 0.946142
w 208 207 -189 0.143929
w 208 -207 189 0.879809
w 208 -207 -189 0.0083201
w 209 208 190 1
w 209 208 -190 1
w 209 -208 190 1
w 209 -208 -190 0
w 210 191 0
w 210 -191 1
w 211 210 192 1
w 211 210 -192 1
w 211 -210 192 1
w 211 -210 -192 0
w 212 211 193 0
w 212 211 -193 1
w 212 -211 193 1
w 212 -211 -193 0
w 213 212 194 0.315851
w 213 212 -194 0.598504
w 213 -212 194 0.331757
w 213 -212 -194 0.533761
w 214 213 195 0.0474026
w 214 213 -195 0.0740642
w 214 -213 195 0.729596
w 214 -213 -195 0.993545
w 215 214 196 0
w 215 214 -196 1
w 215 -214 196 1
w 215 -214 -196 0
w 216 215 197 0
w 216 215 -197 1
w 216 -215 197 0
w 216 -215 -197 0
w 217 216 198 1
w 217 216 -198 1
w 217 -216 198 1
w 217 -216 -198 0
w 218 217 199 0.0482104
w 218 217 -199 0.811754
w 218 -217 199 0.719431
w 218 -217 -199 0.815887
w 219 218 200 0.529621
w 219 218 -200 0.131737
w 219 -218 200 0.152634
w 219 -218 -200 0.861378
w 220 219 201 0.131456
w 220 219 -201 0.90878
w 220 -219 201 0.739563
w 220 -219 -201 0.861052
w 221 220 202 0.957555
w 221 220 -202 0.470457
w 221 -220 202 0.90419
w 221 -220 -202 0.53018
w 222 221 203 1
w 222 221 -203 0
w 222 -221 203 0
w 222 -221 -203 0
w 223 222 204 0
w 223 222 -204 1
w 223 -222 204 0
w 223 -222 -204 0
w 224 223 205 0.069298
w 224 223 -205 0.407141
w 224 -223 205 0.659882
w 224 -223 -205 0.885185
w 225 224 206 0.189503
w 225 224 -206 0.016922
w 225 -224 206 0.113905
w 225 -224 -206 0.0508813
w 226 225 207 0.24536
w 226 225 -207 0.959662
w 226 -225 207 0.421983
w 226 -225 -207 0.106412
w 227 226 208 0.379539
w 227 226 -208 0.576869
w 227 -226 208 0.766177
w 227 -226 -208 0.909718
w 228 227 209 0.0890223
w 228 227 -209 0.0998015
w 228 -227 209 0.937808
w 228 -227 -209 0.491988
w 229 210 0
w 229 -210 1
w 230 229 211 0
w 230 229 -211 1
w 230 -229 211 1
w 230 -229 -211 1
w 231 230 212 0
w 231 230 -212 1
w 231 -230 212 1
w 231 -230 -212 0
w 232 231 213 0.988374
w 232 231 -213 0.5335
w 232 -231 213 0.613002
w 232 -231 -213 0.670795
w 233 232 214 0.572664
w 233 232 -214 0.0927781
w 233 -232 214 0.885272
w 233 -232 -214 0.434651
w 234 233 215 1
w 234 233 -215 1
w 234 -233 215 0
w 234 -233 -215 0
w 235 234 216 1
w 235 234 -216 1
w 235 -234 216 1
w 235 -234 -216 0
w 236 235 217 0
w 236 235 -217 0
w 236 -235 217 1
w 236 -235 -217 1
w 237 236 218 0
w 237 236 -218 0
w 237 -236 218 1
w 237 -236 -218 1
w 238 237 219 1
w 238 237 -219 1
w 238 -237 219 0
w 238 -237 -219 1
w 239 238 220 0
w 239 238 -220 1
w 239 -238 220 1
w 239 -238 -220 0
w 240 239 221 0.826514
w 240 239 -221 0.157605
w 240 -239 221 0.0131967
w 240 -239 -221 0.225031
w 241 240 222 1
w 241 240 -222 1
w 241 -240 222 0
w 241 -240 -222 1
w 242 241 223 0.466928
w 242 241 -223 0.100725
w 242 -241 223 0.24274
w 242 -241 -223 0.755749
w 243 242 224 0.678185
w 243 242 -224 0.502894
w 243 -242 224 0.276787
w 243 -242 -224 0.0850825
w 244 243 225 0.613248
w 244 243 -225 0.480354
w 244 -243 225 0.369875
w 244 -243 -225 0.562711
w 245 244 226 0.848976
w 245 244 -226 0.0848376
w 245 -244 226 0.705266
w 245 -244 -226 0.213349
w 246 245 227 0
w 246 245 -227 1
w 246 -245 227 0
w 246 -245 -227 0
w 247 246 228 1
w 247 246 -228 1
w 247 -246 228 1
w 247 -246 -228 0
w 248 229 0
w 248 -229 1
w 249 248 230 0
w 249 248 -230 0
w 249 -248 230 0
w 249 -248 -230 1
w 250 249 231 0.601537
w 250 249 -231 0.136355
w 250 -249 231 0.72582
w 250 -249 -231 0.271171
w 251 250 232 0.206174
w 251 250 -232 0.641046
w 251 -250 232 0.312314
w 251 -250 -232 0.752596
w 252 251 233 0
w 252 251 -233 1
w 252 -251 233 1
w 252 -251 -233 1
w 253 252 234 0.743234
w 253 252 -234 0.637985
w 253 -252 234 0.143914
w 253 -252 -234 0.00812752
w 254 253 235 0
w 254 253 -235 0
w 254 -253 235 0
w 254 -253 -235 1
w 255 254 236 0.602087
w 255 254 -236 0.516743
w 255 -254 236 0.602163
w 255 -254 -236 0.461655
w 256 255 237 0
w 256 255 -237 0
w 256 -255 237 1
w 256 -255 -237 1
w 257 256 238 0
w 257 256 -238 0
w 257 -256 238 0
w 257 -256 -238 1
w 258 257 239 0
w 258 257 -239 1
w 258 -257 239 0
w 258 -257 -239 0
w 259 258 240 1
w 259 258 -240 0
w 259 -258 240 0
w 259 -258 -240 1
w 260 259 241 1
w 260 259 -241 0
w 260 -259 241 1
w 260 -259 -241 0
w 261 260 242 1
w 261 260 -242 1
w 261 -260 242 0
w 261 -260 -242 1
w 262 261 243 0
w 262 261 -243 1
w 262 -261 243 1
w 262 -261 -243 1
w 263 262 244 1
w 263 262 -244 1
w 263 -262 244 0
w 263 -262 -244 0
w 264 263 245 1
w 264 263 -245 0
w 264 -263 245 0
w 264 -263 -245 1
w 265 264 246 1
w 265 264 -246 0
w 265 -264 246 0
w 265 -264 -246 0
w 266 265 247 1
w 266 265 -247 1
w 266 -265 247 0
w 266 -265 -247 0
w 267 248 0.907951
w 267 -248 0.342745
w 268 267 249 0.592749
w 268 267 -249 0.878163
w 268 -267 249 0.941474
w 268 -267 -249 0.481246
w 269 268 250 0
w 269 268 -250 1
w 269 -268 250 0
w 269 -268 -250 1
w 270 269 251 0
w 270 269 -251 1
w 270 -269 251 0
w 270 -269 -251 0
w 271 270 252 0
w 271 270 -252 1
w 271 -270 252 1
w 271 -270 -252 1
w 272 271 253 0
w 272 271 -253 1
w 272 -271 253 0
w 272 -271 -253 1
w 273 272 254 0
w 273 272 -254 1
w 273 -272 254 1
w 273 -272 -254 1
w 274 273 255 0.831331
w 274 273 -255 0.925468
w 274 -273 255 0.41126
w 274 -273 -255 0.772805
w 275 274 256 1
w 275 274 -256 0
w 275 -274 256 0
w 275 -274 -256 1
w 276 275 257 0.57523
w 276 275 -257 0.549081
w 276 -275 257 0.748284
w 276 -275 -257 0.984356
w 277 276 258 1
w 277 276 -258 1
w 277 -276 258 1
w 277 -276 -258 0
w 278 277 259 1
w 278 277 -259 0
w 278 -277 259 0
w 278 -277 -259 1
w 279 278 260 0.958527
w 279 278 -260 0.283717
w 279 -278 260 0.758559
w 279 -278 -260 0.971844
w 280 279 261 0.291656
w 280 279 -261 0.803174
w 280 -279 261 0.541905
w 280 -279 -261 0.702916
w 281 280 262 0.948619
w 281 280 -262 0.125767
w 281 -280 262 0.297019
w 281 -280 -262 0.199948
w 282 281 263 1
w 282 281 -263 0
w 282 -281 263 1
w 282 -281 -263 0
w 283 282 264 0.971054
w 283 282 -264 0.780109
w 283 -282 264 0.547552
w 283 -282 -264 0.877306
w 284 283 265 0
w 284 283 -265 1
w 284 -283 265 0
w 284 -283 -265 0
w 285 284 266 0.517919
w 285 284 -266 0.342079
w 285 -284 266 0.279469
w 285 -284 -266 0.276477
w 286 267 1
w 286 -267 0
w 287 286 268 0.117097
w 287 286 -268 0.43781
w 287 -286 268 0.271048
w 287 -286 -268 0.693076
w 288 287 269 0
w 288 287 -269 0
w 288 -287 269 1
w 288 -287 -269 0
w 289 288 270 1
w 289 288 -270 0
w 289 -288 270 0
w 289 -288 -270 0
w 290 289 271 0.643547
w 290 289 -271 0.668643
w 290 -289 271 0.876756
w 290 -289 -271 0.946425
w 291 290 272 0
w 291 290 -272 0
w 291 -290 272 1
w 291 -290 -272 0
w 292 291 273 0
w 292 291 -273 1
w 292 -291 273 0
w 292 -291 -273 1
w 293 292 274 0
w 293 292 -274 0
w 293 -292 274 1
w 293 -292 -274 1
w 294 293 275 0
w 294 293 -275 0
w 294 -293 275 0
w 294 -293 -275 1
w 295 294 276 0
w 295 294 -276 1
w 295 -294 276 0
w 295 -294 -276 0
w 296 295 277 1
w 296 295 -277 1
w 296 -295 277 0
w 296 -295 -277 0
w 297 296 278 0.00154561
w 297 296 -278 0.282758
w 297 -296 278 0.496945
w 297 -296 -278 0.640049
w 298 297 279 1
w 298 297 -279 1
w 298 -297 279 0
w 298 -297 -279 1
w 299 298 280 0.860199
w 299 298 -280 0.326738
w 299 -298 280 0.38804
w 299 -298 -280 0.389913
w 300 299 281 1
w 300 299 -281 1
w 300 -299 281 1
w 300 -299 -281 0
w 301 300 282 0.673588
w 301 300 -282 0.949133
w 301 -300 282 0.074028
w 301 -300 -282 0.684425
w 302 301 283 1
w 302 301 -283 1
w 302 -301 283 1
w 302 -301 -283 0
w 303 302 284 0.775224
w 303 302 -284 0.0184254
w 303 -302 284 0.436562
w 303 -302 -284 0.415274
w 304 303 285 0
w 304 303 -285 1
w 304 -303 285 0
w 304 -303 -285 1
w 305 286 0.656892
w 305 -286 0.809295
w 306 305 287 1
w 306 305 -287 0
w 306 -305 287 0
w 306 -305 -287 0
w 307 306 288 0.235386
w 307 306 -288 0.434172
w 307 -306 288 0.196686
w 307 -306 -288 0.908974
w 308 307 289 0
w 308 307 -289 0
w 308 -307 289 1
w 308 -307 -289 0
w 309 308 290 0.184069
w 309 308 -290 0.472851
w 309 -308 290 0.871824
w 309 -308 -290 0.959293
w 310 309 291 0
w 310 309 -291 0
w 310 -309 291 1
w 310 -309 -291 0
w 311 310 292 0
w 311 310 -292 0
w 311 -310 292 0
w 311 -310 -292 1
w 312 311 293 0.394947
w 312 311 -293 0.613546
w 312 -311 293 0.34849
w 312 -311 -293 0.836847
w 313 312 294 0
w 313 312 -294 1
w 313 -312 294 0
w 313 -312 -294 1
w 314 313 295 0.596596
w 314 313 -295 0.0862491
w 314 -313 295 0.0647153
w 314 -313 -295 0.333779
w 315 314 296 0
w 315 314 -296 1
w 315 -314 296 1
w 315 -314 -296 0
w 316 315 297 1
w 316 315 -297 1
w 316 -315 297 1
w 316 -315 -297 0
w 317 316 298 0.792802
w 317 316 -298 0.45966
w 317 -316 298 0.354629
w 317 -316 -298 0.142817
w 318 317 299 0.993923
w 318 317 -299 0.537765
w 318 -317 299 0.487546
w 318 -317 -299 0.342413
w 319 318 300 0
w 319 318 -300 1
w 319 -318 300 0
w 319 -318 -300 0
w 320 319 301 0
w 320 319 -301 1
w 320 -319 301 1
w 320 -319 -301 0
w 321 320 302 0.523844
w 321 320 -302 0.613455
w 321 -320 302 0.679627
w 321 -320 -302 0.414125
w 322 321 303 0.977533
w 322 321 -303 0.612792
w 322 -321 303 0.404176
w 322 -321 -303 0.077212
w 323 322 304 1
w 323 322 -304 1
w 323 -322 304 1
w 323 -322 -304 0
w 324 305 0
w 324 -305 1
w 325 324 306 0.550596
w 325 324 -306 0.288614
w 325 -324 306 0.0882564
w 325 -324 -306 0.925207
w 326 325 307 0.0145448
w 326 325 -307 0.570838
w 326 -325 307 0.847978
w 326 -325 -307 0.433683
w 327 326 308 0.387196
w 327 326 -308 0.939071
w 327 -326 308 0.235466
w 327 -326 -308 0.260194
w 328 327 309 1
w 328 327 -309 0
w 328 -327 309 1
w 328 -327 -309 0
w 329 328 310 0.489832
w 329 328 -310 0.0746299
w 329 -328 310 0.994566
w 329 -328 -310 0.95724
w 330 329 311 0
w 330 329 -311 0
w 330 -329 311 1
w 330 -329 -311 0
w 331 330 312 0.969686
w 331 330 -312 0.428007
w 331 -330 312 0.97399
w 331 -330 -312 0.0579422
w 332 331 313 0
w 332 331 -313 0
w 332 -331 313 1
w 332 -331 -313 0
w 333 332 314 0.114519
w 333 332 -314 0.445241
w 333 -332 314 0.0303133
w 333 -332 -314 0.374713
w 334 333 315 0.879235
w 334 333 -315 0.314533
w 334 -333 315 0.785195
w 334 -333 -315 0.549688
w 335 334 316 1
w 335 334 -316 0
w 335 -334 316 1
w 335 -334 -316 0
w 336 335 317 1
w 336 335 -317 0
w 336 -335 317 0
w 336 -335 -317 1
w 337 336 318 0.289768
w 337 336 -318 0.396452
w 337 -336 318 0.775941
w 337 -336 -318 0.34771
w 338 337 319 0.655286
w 338 337 -319 0.420197
w 338 -337 319 0.67372
w 338 -337 -319 0.382609
w 339 338 320 0.468568
w 339 338 -320 0.497128
w 339 -338 320 0.371608
w 339 -338 -320 0.498881
w 340 339 321 0.279763
w 340 339 -321 0.378115
w 340 -339 321 0.186374
w 340 -339 -321 0.0649581
w 341 340 322 0.418261
w 341 340 -322 0.339985
w 341 -340 322 0.552122
w 341 -340 -322 0.644715
w 342 341 323 0.648361
w 342 341 -323 0.735749
w 342 -341 323 0.688826
w 342 -341 -323 0.968443
w 343 324 0.490777
w 343 -324 0.258211
w 344 343 325 1
w 344 343 -325 0
w 344 -343 325 1
w 344 -343 -325 1
w 345 344 326 0
w 345 344 -326 0
w 345 -344 326 1
w 345 -344 -326 0
w 346 345 327 0.324092
w 346 345 -327 0.491482
w 346 -345 327 0.67358
w 346 -345 -327 0.603855
w 347 346 328 0.859954
w 347 346 -328 0.668813
w 347 -346 328 0.797401
w 347 -346 -328 0.278215
w 348 347 329 1
w 348 347 -329 0
w 348 -347 329 1
w 348 -347 -329 1
w 349 348 330 0.269875
w 349 348 -330 0.966328
w 349 -348 330 0.362873
w 349 -348 -330 0.760652
w 350 349 331 1
w 350 349 -331 0
w 350 -349 331 0
w 350 -349 -331 1
w 351 350 332 0.856576
w 351 350 -332 0.837868
w 351 -350 332 0.253986
w 351 -350 -332 0.80906
w 352 351 333 0.0557258
w 352 351 -333 0.133152
w 352 -351 333 0.321952
w 352 -351 -333 0.729306
w 353 352 334 0.19155
w 353 352 -334 0.58926
w 353 -352 334 0.405821
w 353 -352 -334 0.988951
w 354 353 335 0.414619
w 354 353 -335 0.338474
w 354 -353 335 0.790405
w 354 -353 -335 0.995668
w 355 354 336 0
w 355 354 -336 1
w 355 -354 336 1
w 355 -354 -336 0
w 356 355 337 0
w 356 355 -337 1
w 356 -355 337 1
w 356 -355 -337 1
w 357 356 338 1
w 357 356 -338 1
w 357 -356 338 1
w 357 -356 -338 0
w 358 357 339 0
w 358 357 -339 0
w 358 -357 339 1
w 358 -357 -339 1
w 359 358 340 0.771149
w 359 358 -340 0.631217
w 359 -358 340 0.299301
w 359 -358 -340 0.7601
w 360 359 341 1
w 360 359 -341 0
w 360 -359 341 1
w 360 -359 -341 1
w 361 360 342 1
w 361 360 -342 0
w 361 -360 342 0
w 361 -360 -342 1